c Generated map
c Size: 13 * 13, weights in range: 1 to 10, walls: False, with ratio 0.2
c dim 4 of 4
c
p sp 169 312
c graph contains 169 nodes and 312 arcs
c
a 1 14 6
a 14 1 6
a 1 2 4
a 2 1 4
a 2 15 3
a 15 2 3
a 2 3 2
a 3 2 2
a 3 16 10
a 16 3 10
a 3 4 4
a 4 3 4
a 4 17 2
a 17 4 2
a 4 5 9
a 5 4 9
a 5 18 5
a 18 5 5
a 5 6 4
a 6 5 4
a 6 19 4
a 19 6 4
a 6 7 1
a 7 6 1
a 7 20 6
a 20 7 6
a 7 8 8
a 8 7 8
a 8 21 3
a 21 8 3
a 8 9 5
a 9 8 5
a 9 22 8
a 22 9 8
a 9 10 4
a 10 9 4
a 10 23 9
a 23 10 9
a 10 11 4
a 11 10 4
a 11 24 1
a 24 11 1
a 11 12 6
a 12 11 6
a 12 25 9
a 25 12 9
a 12 13 3
a 13 12 3
a 13 26 1
a 26 13 1
a 14 27 9
a 27 14 9
a 14 15 6
a 15 14 6
a 15 28 1
a 28 15 1
a 15 16 7
a 16 15 7
a 16 29 9
a 29 16 9
a 16 17 9
a 17 16 9
a 17 30 3
a 30 17 3
a 17 18 8
a 18 17 8
a 18 31 5
a 31 18 5
a 18 19 6
a 19 18 6
a 19 32 7
a 32 19 7
a 19 20 9
a 20 19 9
a 20 33 8
a 33 20 8
a 20 21 3
a 21 20 3
a 21 34 10
a 34 21 10
a 21 22 7
a 22 21 7
a 22 35 3
a 35 22 3
a 22 23 1
a 23 22 1
a 23 36 1
a 36 23 1
a 23 24 3
a 24 23 3
a 24 37 3
a 37 24 3
a 24 25 7
a 25 24 7
a 25 38 1
a 38 25 1
a 25 26 9
a 26 25 9
a 26 39 3
a 39 26 3
a 27 40 4
a 40 27 4
a 27 28 6
a 28 27 6
a 28 41 2
a 41 28 2
a 28 29 7
a 29 28 7
a 29 42 6
a 42 29 6
a 29 30 5
a 30 29 5
a 30 43 5
a 43 30 5
a 30 31 4
a 31 30 4
a 31 44 6
a 44 31 6
a 31 32 7
a 32 31 7
a 32 45 2
a 45 32 2
a 32 33 7
a 33 32 7
a 33 46 10
a 46 33 10
a 33 34 8
a 34 33 8
a 34 47 7
a 47 34 7
a 34 35 2
a 35 34 2
a 35 48 3
a 48 35 3
a 35 36 10
a 36 35 10
a 36 49 2
a 49 36 2
a 36 37 2
a 37 36 2
a 37 50 10
a 50 37 10
a 37 38 8
a 38 37 8
a 38 51 9
a 51 38 9
a 38 39 7
a 39 38 7
a 39 52 2
a 52 39 2
a 40 53 1
a 53 40 1
a 40 41 5
a 41 40 5
a 41 54 6
a 54 41 6
a 41 42 2
a 42 41 2
a 42 55 4
a 55 42 4
a 42 43 1
a 43 42 1
a 43 56 9
a 56 43 9
a 43 44 4
a 44 43 4
a 44 57 3
a 57 44 3
a 44 45 6
a 45 44 6
a 45 58 5
a 58 45 5
a 45 46 6
a 46 45 6
a 46 59 6
a 59 46 6
a 46 47 2
a 47 46 2
a 47 60 10
a 60 47 10
a 47 48 9
a 48 47 9
a 48 61 8
a 61 48 8
a 48 49 7
a 49 48 7
a 49 62 8
a 62 49 8
a 49 50 9
a 50 49 9
a 50 63 9
a 63 50 9
a 50 51 8
a 51 50 8
a 51 64 3
a 64 51 3
a 51 52 4
a 52 51 4
a 52 65 8
a 65 52 8
a 53 66 7
a 66 53 7
a 53 54 3
a 54 53 3
a 54 67 1
a 67 54 1
a 54 55 1
a 55 54 1
a 55 68 8
a 68 55 8
a 55 56 10
a 56 55 10
a 56 69 8
a 69 56 8
a 56 57 8
a 57 56 8
a 57 70 10
a 70 57 10
a 57 58 10
a 58 57 10
a 58 71 1
a 71 58 1
a 58 59 10
a 59 58 10
a 59 72 7
a 72 59 7
a 59 60 3
a 60 59 3
a 60 73 10
a 73 60 10
a 60 61 3
a 61 60 3
a 61 74 7
a 74 61 7
a 61 62 2
a 62 61 2
a 62 75 8
a 75 62 8
a 62 63 7
a 63 62 7
a 63 76 8
a 76 63 8
a 63 64 8
a 64 63 8
a 64 77 10
a 77 64 10
a 64 65 7
a 65 64 7
a 65 78 1
a 78 65 1
a 66 79 3
a 79 66 3
a 66 67 1
a 67 66 1
a 67 80 2
a 80 67 2
a 67 68 7
a 68 67 7
a 68 81 10
a 81 68 10
a 68 69 6
a 69 68 6
a 69 82 7
a 82 69 7
a 69 70 10
a 70 69 10
a 70 83 10
a 83 70 10
a 70 71 9
a 71 70 9
a 71 84 7
a 84 71 7
a 71 72 8
a 72 71 8
a 72 85 9
a 85 72 9
a 72 73 2
a 73 72 2
a 73 86 9
a 86 73 9
a 73 74 1
a 74 73 1
a 74 87 1
a 87 74 1
a 74 75 2
a 75 74 2
a 75 88 3
a 88 75 3
a 75 76 7
a 76 75 7
a 76 89 10
a 89 76 10
a 76 77 4
a 77 76 4
a 77 90 9
a 90 77 9
a 77 78 9
a 78 77 9
a 78 91 3
a 91 78 3
a 79 92 5
a 92 79 5
a 79 80 8
a 80 79 8
a 80 93 2
a 93 80 2
a 80 81 7
a 81 80 7
a 81 94 10
a 94 81 10
a 81 82 7
a 82 81 7
a 82 95 1
a 95 82 1
a 82 83 8
a 83 82 8
a 83 96 6
a 96 83 6
a 83 84 5
a 84 83 5
a 84 97 4
a 97 84 4
a 84 85 8
a 85 84 8
a 85 98 8
a 98 85 8
a 85 86 7
a 86 85 7
a 86 99 1
a 99 86 1
a 86 87 5
a 87 86 5
a 87 100 4
a 100 87 4
a 87 88 4
a 88 87 4
a 88 101 8
a 101 88 8
a 88 89 9
a 89 88 9
a 89 102 8
a 102 89 8
a 89 90 3
a 90 89 3
a 90 103 9
a 103 90 9
a 90 91 5
a 91 90 5
a 91 104 6
a 104 91 6
a 92 105 6
a 105 92 6
a 92 93 7
a 93 92 7
a 93 106 4
a 106 93 4
a 93 94 4
a 94 93 4
a 94 107 10
a 107 94 10
a 94 95 9
a 95 94 9
a 95 108 6
a 108 95 6
a 95 96 6
a 96 95 6
a 96 109 5
a 109 96 5
a 96 97 8
a 97 96 8
a 97 110 7
a 110 97 7
a 97 98 4
a 98 97 4
a 98 111 6
a 111 98 6
a 98 99 1
a 99 98 1
a 99 112 1
a 112 99 1
a 99 100 3
a 100 99 3
a 100 113 6
a 113 100 6
a 100 101 9
a 101 100 9
a 101 114 4
a 114 101 4
a 101 102 9
a 102 101 9
a 102 115 1
a 115 102 1
a 102 103 1
a 103 102 1
a 103 116 10
a 116 103 10
a 103 104 1
a 104 103 1
a 104 117 3
a 117 104 3
a 105 118 1
a 118 105 1
a 105 106 4
a 106 105 4
a 106 119 3
a 119 106 3
a 106 107 7
a 107 106 7
a 107 120 4
a 120 107 4
a 107 108 5
a 108 107 5
a 108 121 1
a 121 108 1
a 108 109 7
a 109 108 7
a 109 122 2
a 122 109 2
a 109 110 7
a 110 109 7
a 110 123 6
a 123 110 6
a 110 111 4
a 111 110 4
a 111 124 2
a 124 111 2
a 111 112 9
a 112 111 9
a 112 125 10
a 125 112 10
a 112 113 1
a 113 112 1
a 113 126 2
a 126 113 2
a 113 114 1
a 114 113 1
a 114 127 9
a 127 114 9
a 114 115 3
a 115 114 3
a 115 128 7
a 128 115 7
a 115 116 1
a 116 115 1
a 116 129 1
a 129 116 1
a 116 117 6
a 117 116 6
a 117 130 4
a 130 117 4
a 118 131 8
a 131 118 8
a 118 119 10
a 119 118 10
a 119 132 10
a 132 119 10
a 119 120 4
a 120 119 4
a 120 133 6
a 133 120 6
a 120 121 6
a 121 120 6
a 121 134 7
a 134 121 7
a 121 122 2
a 122 121 2
a 122 135 10
a 135 122 10
a 122 123 9
a 123 122 9
a 123 136 5
a 136 123 5
a 123 124 3
a 124 123 3
a 124 137 8
a 137 124 8
a 124 125 2
a 125 124 2
a 125 138 8
a 138 125 8
a 125 126 7
a 126 125 7
a 126 139 9
a 139 126 9
a 126 127 1
a 127 126 1
a 127 140 3
a 140 127 3
a 127 128 2
a 128 127 2
a 128 141 2
a 141 128 2
a 128 129 8
a 129 128 8
a 129 142 5
a 142 129 5
a 129 130 9
a 130 129 9
a 130 143 2
a 143 130 2
a 131 144 6
a 144 131 6
a 131 132 4
a 132 131 4
a 132 145 7
a 145 132 7
a 132 133 1
a 133 132 1
a 133 146 10
a 146 133 10
a 133 134 6
a 134 133 6
a 134 147 7
a 147 134 7
a 134 135 6
a 135 134 6
a 135 148 10
a 148 135 10
a 135 136 1
a 136 135 1
a 136 149 10
a 149 136 10
a 136 137 4
a 137 136 4
a 137 150 5
a 150 137 5
a 137 138 2
a 138 137 2
a 138 151 7
a 151 138 7
a 138 139 1
a 139 138 1
a 139 152 3
a 152 139 3
a 139 140 10
a 140 139 10
a 140 153 5
a 153 140 5
a 140 141 6
a 141 140 6
a 141 154 8
a 154 141 8
a 141 142 5
a 142 141 5
a 142 155 1
a 155 142 1
a 142 143 3
a 143 142 3
a 143 156 3
a 156 143 3
a 144 157 1
a 157 144 1
a 144 145 8
a 145 144 8
a 145 158 10
a 158 145 10
a 145 146 3
a 146 145 3
a 146 159 3
a 159 146 3
a 146 147 10
a 147 146 10
a 147 160 3
a 160 147 3
a 147 148 3
a 148 147 3
a 148 161 10
a 161 148 10
a 148 149 4
a 149 148 4
a 149 162 7
a 162 149 7
a 149 150 7
a 150 149 7
a 150 163 9
a 163 150 9
a 150 151 4
a 151 150 4
a 151 164 5
a 164 151 5
a 151 152 2
a 152 151 2
a 152 165 1
a 165 152 1
a 152 153 9
a 153 152 9
a 153 166 9
a 166 153 9
a 153 154 9
a 154 153 9
a 154 167 3
a 167 154 3
a 154 155 2
a 155 154 2
a 155 168 1
a 168 155 1
a 155 156 7
a 156 155 7
a 156 169 7
a 169 156 7
a 157 158 9
a 158 157 9
a 158 159 5
a 159 158 5
a 159 160 7
a 160 159 7
a 160 161 1
a 161 160 1
a 161 162 9
a 162 161 9
a 162 163 7
a 163 162 7
a 163 164 9
a 164 163 9
a 164 165 7
a 165 164 7
a 165 166 10
a 166 165 10
a 166 167 7
a 167 166 7
a 167 168 9
a 168 167 9
a 168 169 9
a 169 168 9
